15
1 0 2
2 0 11
2 1 6
3 0 10
3 1 9
3 2 10
4 0 8
4 1 5
4 2 5
4 3 6
5 0 6
5 1 9
5 2 5
5 3 3
5 4 2
6 0 2
6 1 6
6 2 12
6 3 1
6 4 12
6 5 7
7 0 7
7 1 5
7 2 3
7 3 8
7 4 5
7 5 9
7 6 10
8 0 3
8 1 7
8 2 9
8 3 7
8 4 12
8 5 8
8 6 1
8 7 3
9 0 2
9 1 11
9 2 2
9 3 11
9 4 9
9 5 5
9 6 6
9 7 9
9 8 1
10 0 3
10 1 8
10 2 12
10 3 7
10 4 2
10 5 3
10 6 12
10 7 4
10 8 6
10 9 5
11 0 3
11 1 1
11 2 12
11 3 10
11 4 3
11 5 11
11 6 1
11 7 9
11 8 8
11 9 10
11 10 7
12 0 8
12 1 7
12 2 7
12 3 11
12 4 3
12 5 12
12 6 6
12 7 2
12 8 1
12 9 11
12 10 4
12 11 5
13 0 6
13 1 9
13 2 3
13 3 12
13 4 6
13 5 7
13 6 5
13 7 4
13 8 12
13 9 12
13 10 3
13 11 1
13 12 4
14 0 1
14 1 8
14 2 6
14 3 10
14 4 10
14 5 2
14 6 6
14 7 5
14 8 7
14 9 8
14 10 8
14 11 12
14 12 5
14 13 4
